24
1 0 60
2 0 15
2 1 54
3 0 42
3 1 46
3 2 43
4 0 24
4 1 30
4 2 36
4 3 18
5 0 31
5 1 34
5 2 64
5 3 56
5 4 18
6 0 64
6 1 34
6 2 24
6 3 8
6 4 14
6 5 66
7 0 41
7 1 54
7 2 26
7 3 20
7 4 39
7 5 15
7 6 26
8 0 42
8 1 48
8 2 8
8 3 28
8 4 26
8 5 47
8 6 40
8 7 38
9 0 8
9 1 51
9 2 50
9 3 3
9 4 38
9 5 47
9 6 27
9 7 62
9 8 15
10 0 36
10 1 64
10 2 49
10 3 14
10 4 66
10 5 57
10 6 67
10 7 32
10 8 28
10 9 67
11 0 51
11 1 31
11 2 67
11 3 22
11 4 46
11 5 48
11 6 9
11 7 10
11 8 5
11 9 20
11 10 28
12 0 16
12 1 13
12 2 46
12 3 44
12 4 38
12 5 27
12 6 50
12 7 51
12 8 13
12 9 23
12 10 63
12 11 37
13 0 59
13 1 60
13 2 48
13 3 45
13 4 6
13 5 51
13 6 56
13 7 21
13 8 56
13 9 64
13 10 9
13 11 26
13 12 23
14 0 28
14 1 58
14 2 16
14 3 27
14 4 45
14 5 45
14 6 11
14 7 7
14 8 6
14 9 62
14 10 21
14 11 7
14 12 25
14 13 50
15 0 48
15 1 49
15 2 11
15 3 11
15 4 35
15 5 48
15 6 58
15 7 11
15 8 41
15 9 1
15 10 23
15 11 37
15 12 20
15 13 17
15 14 48
16 0 62
16 1 51
16 2 55
16 3 48
16 4 6
16 5 21
16 6 24
16 7 15
16 8 55
16 9 52
16 10 32
16 11 52
16 12 56
16 13 30
16 14 53
16 15 34
17 0 11
17 1 37
17 2 36
17 3 42
17 4 32
17 5 6
17 6 37
17 7 15
17 8 8
17 9 34
17 10 19
17 11 22
17 12 46
17 13 38
17 14 67
17 15 26
17 16 30
18 0 19
18 1 42
18 2 28
18 3 8
18 4 3
18 5 38
18 6 56
18 7 45
18 8 66
18 9 49
18 10 27
18 11 11
18 12 27
18 13 33
18 14 60
18 15 47
18 16 53
18 17 7
19 0 40
19 1 19
19 2 43
19 3 17
19 4 35
19 5 62
19 6 19
19 7 22
19 8 61
19 9 15
19 10 18
19 11 58
19 12 48
19 13 40
19 14 5
19 15 12
19 16 57
19 17 41
19 18 16
20 0 65
20 1 31
20 2 66
20 3 8
20 4 44
20 5 40
20 6 43
20 7 56
20 8 50
20 9 61
20 10 36
20 11 21
20 12 11
20 13 25
20 14 6
20 15 8
20 16 43
20 17 5
20 18 57
20 19 58
21 0 41
21 1 41
21 2 18
21 3 19
21 4 65
21 5 45
21 6 59
21 7 62
21 8 56
21 9 44
21 10 31
21 11 44
21 12 10
21 13 47
21 14 46
21 15 60
21 16 50
21 17 17
21 18 24
21 19 37
21 20 5
22 0 3
22 1 35
22 2 4
22 3 63
22 4 26
22 5 51
22 6 53
22 7 60
22 8 47
22 9 34
22 10 67
22 11 65
22 12 6
22 13 26
22 14 1
22 15 3
22 16 13
22 17 40
22 18 11
22 19 2
22 20 38
22 21 6
23 0 51
23 1 44
23 2 39
23 3 6
23 4 18
23 5 30
23 6 16
23 7 63
23 8 18
23 9 17
23 10 43
23 11 35
23 12 61
23 13 31
23 14 4
23 15 54
23 16 2
23 17 49
23 18 39
23 19 4
23 20 1
23 21 54
23 22 61
